c --- [ banner ] -------------------------------------------------------------
c 
c CaDiCaL Radically Simplified CDCL SAT Solver
c Copyright (c) 2016-2021 A. Biere, M. Fleury, N. Froleyks
c 
c Version 1.5.2 a5f15211db36c3956764e18194dd5bd63bf3b5e6
c g++ (GCC) 9.3.0 -Wall -Wextra -O3 -DNDEBUG
c Fri Oct 21 01:27:37 EDT 2022 Linux gra-login3 3.10.0-1160.66.1.el7.x86_64 x86_64
c 
c --- [ limit ] --------------------------------------------------------------
c 
c setting conflict limit to 200000 conflicts (due to '200000')
c 
c --- [ parsing input ] ------------------------------------------------------
c 
c reading DIMACS file from '33.cubes156.adj'
c opening file to read '33.cubes156.adj'
c found 'p cnf 6160 1595471' header
c parsed 1595471 clauses in 14.47 seconds process time
c closing file '33.cubes156.adj'
c after reading 1457566751 bytes 1390.0 MB
c 
c --- [ options ] ------------------------------------------------------------
c 
c all options are set to their default value
c 
c --- [ solving ] ------------------------------------------------------------
c 
c time measured in process time since initialization
c 
c  seconds    reductions  redundant   irredundant
c          MB     restarts       trail       variables
c            level   conflicts       glue         remaining
c 
c * 14.47 1363  0 0   0    0    0  0% 0 1595422 2491 40%
c { 14.70 1380  0 0   0    0    0  0% 0 1595422 2491 40%
c i 15.34 1423 1325 0   1   31   26 38% 2 1595422 2477 40%
c i 17.18 1491 638 0  10   72   53 30% 9 1595422 2463 40%
c i 17.28 1493 613 0  11   75   55 30% 10 1595422 2462 40%
c i 17.41 1494 548 0  12   84   63 30% 12 1595422 2461 40%
c i 17.61 1494 443 0  17  107   80 30% 20 1595422 2460 40%
c i 17.79 1497 428 0  19  113   85 30% 23 1595422 2459 40%
c i 17.81 1497 420 0  20  116   87 30% 22 1595422 2458 40%
c i 18.05 1502 392 0  22  131   99 30% 26 1595422 2457 40%
c i 18.31 1503 357 0  26  145  111 30% 27 1595422 2456 40%
c i 18.44 1504 316 0  32  168  132 30% 30 1595422 2455 40%
c i 18.57 1506 305 0  34  175  134 30% 29 1595422 2441 40%
c i 18.82 1507 178 0  36  303  208 24% 19 1595422 2438 40%
c - 21.54 1455 178 1  36  303  208 24% 19 370368 2437 40%
c i 21.88 1369 177 1  39  327  230 25% 24 370368 2436 40%
c i 21.91 1369 176 1  40  333  232 25% 24 370368 2432 39%
c i 21.98 1369 171 1  45  352  245 24% 24 370368 2431 39%
c i 22.09 1369 166 1  49  363  246 24% 24 370368 2430 39%
c i 22.09 1369 165 1  49  365  247 24% 24 370368 2429 39%
c 
c  seconds     reductions  redundant   irredundant
c          MB      restarts       trail       variables
c             level   conflicts       glue         remaining
c 
c i 22.11 1369 165 1  50  366  247 24% 24 370368 2428 39%
c i 22.11 1369 164 1  50  367  247 24% 24 370368 2427 39%
c i 22.11 1369 164 1  50  368  247 24% 24 370368 2426 39%
c i 22.11 1369 163 1  51  369  247 24% 24 370368 2425 39%
c i 22.28 1369 161 1  54  382  257 24% 25 370368 2424 39%
c i 22.48 1370 152 1  62  421  294 25% 27 370368 2423 39%
c i 22.49 1370 151 1  62  422  294 25% 26 370368 2422 39%
c i 22.49 1370 151 1  63  425  296 25% 26 370368 2421 39%
c i 22.58 1370 147 1  67  439  301 25% 26 370368 2420 39%
c i 22.91 1370 147 1  73  482  335 25% 30 370368 2419 39%
c i 22.97 1370 143 1  78  502  351 25% 30 370368 2418 39%
c i 22.98 1370 143 1  78  503  351 25% 30 370368 2417 39%
c i 23.16 1370 138 1  85  538  382 25% 31 370368 2415 39%
c i 23.56 1370 115 1  95  688  437 24% 27 370368 2414 39%
c i 23.58 1370 115 1  95  691  439 24% 27 370368 2413 39%
c i 23.58 1370 114 1  95  692  439 24% 27 370368 2412 39%
c i 23.68 1370 115 1  98  712  456 24% 29 370368 2411 39%
c i 23.70 1370 115 1  99  715  458 24% 29 370368 2410 39%
c i 23.75 1370 115 1 101  723  465 24% 30 370368 2409 39%
c i 23.81 1370 114 1 104  739  478 24% 30 370368 2408 39%
c 
c  seconds     reductions  redundant   irredundant
c          MB      restarts       trail       variables
c             level   conflicts       glue         remaining
c 
c i 23.89 1370 113 1 107  751  488 24% 30 370368 2406 39%
c i 23.92 1370 113 1 112  771  504 25% 31 370368 2405 39%
c i 23.93 1370 113 1 113  773  505 25% 31 370368 2404 39%
c i 23.93 1370 112 1 114  775  506 25% 31 370368 2403 39%
c i 24.10 1370 113 1 118  791  520 25% 31 370368 2402 39%
c i 24.17 1370 114 1 121  808  528 25% 31 370368 2397 39%
c i 24.21 1370 114 1 123  813  532 25% 32 370368 2396 39%
c i 24.27 1370 114 1 125  820  538 25% 31 370368 2395 39%
c i 24.55 1370 113 1 135  852  564 25% 32 370368 2394 39%
c i 24.55 1370 113 1 135  853  564 25% 32 370368 2393 39%
c i 24.57 1370 113 1 136  854  564 25% 32 370368 2392 39%
c i 24.61 1370 113 1 137  858  567 25% 32 370368 2391 39%
c i 24.63 1370 113 1 137  862  570 25% 32 370368 2390 39%
c i 24.68 1370 114 1 138  870  577 25% 32 370368 2389 39%
c i 24.71 1370 113 1 138  878  584 25% 32 370368 2388 39%
c i 24.92 1370 112 1 145  908  610 25% 33 370368 2387 39%
c i 24.92 1370 112 1 146  910  611 25% 33 370368 2386 39%
c i 24.92 1370 112 1 146  911  611 25% 33 370368 2385 39%
c i 24.92 1370 112 1 146  912  611 25% 33 370368 2384 39%
c i 24.95 1370 112 1 149  922  620 25% 33 370368 2383 39%
c 
c  seconds     reductions  redundant   irredundant
c          MB      restarts       trail       variables
c             level   conflicts       glue         remaining
c 
c i 25.11 1370 111 1 154  943  639 25% 33 370368 2382 39%
c i 25.21 1370 110 1 157  957  652 25% 33 370368 2381 39%
c i 25.21 1370 110 1 157  960  653 25% 33 370368 2379 39%
c i 25.21 1370 110 1 157  962  654 25% 33 370368 2378 39%
c i 25.23 1370 110 1 157  963  654 25% 33 370368 2377 39%
c i 25.32 1371 110 1 159  979  667 25% 33 370368 2376 39%
c i 25.34 1371 109 1 159  989  674 25% 33 370368 2375 39%
c i 25.34 1371 108 1 159  992  675 25% 33 370368 2374 39%
c i 25.34 1371 108 1 159  995  677 25% 33 370368 2373 39%
c } 25.35 1371 108 1 159 1001  682 25% 33 370368 2373 39%
c [ 25.35 1371  0 1 159 1001  682  0% 0 370368 2373 39%
c O 25.35 1371  0 1 159 1002  682 11% 0 370368 2373 39%
c i 25.35 1371  0 1 159 1002  682 11% 0 370368 2342 38%
c i 25.35 1371  1 1 159 1003  682 11% 0 370368 2325 38%
c i 25.44 1371  6 1 159 1014  686 16% 6 370368 2324 38%
c i 25.51 1371 11 1 159 1027  698 25% 10 370368 2323 38%
c ] 25.54 1370 12 1 159 1032  703 27% 10 370368 2323 38%
c 1 25.54 1370 12 1 159 1032  703 27% 10 370368 2323 38%
c 
c --- [ writing output ] -----------------------------------------------------
c 
c writing simplified CNF to DIMACS file 'simp/33.cubes156.adj.simp1'
c * 25.54 1370 12 1 159 1032  703 27% 10 370368 2323 38%
c opening file to write 'simp/33.cubes156.adj.simp1'
c writing 'p cnf 6160 289515' header
c closing file 'simp/33.cubes156.adj.simp1'
c after writing 148216880 bytes 141.4 MB
c wrote 289515 clauses in 0.97 seconds process time
c 
c --- [ writing extension ] --------------------------------------------------
c 
c writing extension stack to 'simp/33.cubes156.adj.ext1'
c opening file to write 'simp/33.cubes156.adj.ext1'
c closing file 'simp/33.cubes156.adj.ext1'
c after writing 10154 bytes 0.0 MB
c wrote 693 witnesses in 0.00 seconds process time
c 
c --- [ result ] -------------------------------------------------------------
c 
s SATISFIABLE
c 
c --- [ run-time profiling ] -------------------------------------------------
c 
c process time taken by individual solving procedures
c (percentage relative to process time for solving)
c 
c        14.47  130.78% parse
c        11.07  100.00% search
c        10.65   96.25% unstable
c         0.22    2.02% lucky
c         0.19    1.72% stable
c         0.00    0.00% simplify
c   =================================
c        11.07   41.75% solve
c 
c last line shows process time for solving
c (percentage relative to total process time)
c 
c --- [ statistics ] ---------------------------------------------------------
c 
c chronological:               354        34.30 %  of conflicts
c conflicts:                  1032        93.26    per second
c decisions:                 22539      2036.75    per second
c fixed:                       693        11.25 %  of all variables
c learned:                     992        96.12 %  per conflict
c learned_lits:             119042       100.00 %  learned literals
c minimized:                     0         0.00 %  learned literals
c shrunken:                  58702        49.31 %  learned literals
c minishrunken:               7462         6.27 %  learned literals
c propagations:             258008         0.02 M  per second
c rephased:                      1      1032.00    interval
c restarts:                    159         6.49    interval
c stabilizing:                   1         3.00 %  of conflicts
c subsumed:                    207         0.01 %  of all clauses
c 
c seconds are measured in process time for solving
c 
c --- [ resources ] ----------------------------------------------------------
c 
c total process time since initialization:        26.51    seconds
c total real time since initialization:           26.89    seconds
c maximum resident set size of process:         1507.44    MB
c 
c --- [ shutting down ] ------------------------------------------------------
c 
c exit 10
WARNING! DIMACS header mismatch: wrong number of variables.
============================[ Problem Statistics ]=============================
|                                                                             |
|  Number of variables:          6120                                         |
|  Number of clauses:          289515                                         |
|  Parse time:                   1.80 s                                       |
|  Simplification time:          0.04 s                                       |
|                                                                             |
============================[ Search Statistics ]====================================================
| Conflicts |          ORIGINAL         |          LEARNT          | Num Sols |      SUBGRAPHS      |
|           |    Vars  Clauses Literals |    Limit  Clauses Lit/Cl |          | Canonical Noncanon. |
=====================================================================================================
|       100 |    6029   289515 32014885 |     2000      100     17 |        0 |        23         0 |
|       278 |    6021   289543 32015282 |     2000      270     84 |        0 |        45        28 |
|       536 |    6012   289576 32015800 |     2000      519     94 |        0 |        77        61 |
|       899 |    5996   289602 32017052 |     2000      866    111 |        0 |        92        87 |
|      1546 |    5981   289743 32020226 |     2000     1498     93 |        0 |       163       228 |
|      2574 |    5967   290012 32023636 |     3582     1546     50 |        0 |       234       497 |
|      3773 |    5958   290072 32024551 |     3582     2736     83 |        0 |       245       557 |
|      5639 |    5950   290230 32027786 |     4984     2818     50 |        0 |       281       715 |
|      8438 |    5946   290467 32032228 |     6290     3126     44 |        0 |       348       952 |
|     12569 |    5945   290754 32038421 |     7545     4114     55 |        0 |       422      1239 |
|     18887 |    5945   291306 32047988 |     8773     6660     63 |        0 |       572      1791 |
|     28068 |    5945   291838 32059473 |    11194     6462     59 |        0 |       758      2323 |
|     41343 |    5943   292139 32065267 |    13609     7951     58 |        0 |       967      2624 |
|     61430 |    5943   292765 32074969 |    16003    13833     76 |        0 |      1323      3250 |
|     91078 |    5943   293221 32084560 |    19607    17685     76 |        0 |      1716      3706 |
|    135736 |    5943   294090 32099969 |    24407    19543     72 |        0 |      2290      4575 |
|    202823 |    5943   295493 32121466 |    30410    19633     57 |        0 |      3125      5978 |
|    303126 |    5943   297012 32149475 |    37611    19737     50 |        0 |      3949      7755 |
|    455690 |    5943   301787 32228997 |    46015    28105     57 |        0 |      6575     12530 |
|    688318 |    5943   312732 32409371 |    56802    32120     47 |        0 |     11565     23475 |
|   1035771 |    5943   327660 32666336 |    68818    68589     76 |        0 |     18145     38403 |
=====================================================================================================
Number of solutions   : 0
Canonical subgraphs   : 23561          (24 /sec)
          order  3    : 1              (166667 /sec)
          order  4    : 1              (1000000 /sec)
          order  5    : 1              (250000 /sec)
          order  6    : 1              (62500 /sec)
          order  7    : 1              (10101 /sec)
          order  8    : 2              (1569 /sec)
          order  9    : 6              (362 /sec)
          order 10    : 21             (208 /sec)
          order 11    : 59             (137 /sec)
          order 12    : 85             (127 /sec)
          order 13    : 99             (84 /sec)
          order 14    : 78             (56 /sec)
          order 15    : 1229           (37 /sec)
          order 16    : 8358           (26 /sec)
          order 17    : 9509           (22 /sec)
          order 18    : 2982           (21 /sec)
          order 19    : 510            (23 /sec)
          order 20    : 302            (23 /sec)
          order 21    : 316            (24 /sec)
          order 22    : 0              (-nan /sec)
Noncanonical subgraphs: 53005          (203 /sec)
          order  3    : 0              (-nan /sec)
          order  4    : 0              (-nan /sec)
          order  5    : 0              (-nan /sec)
          order  6    : 0              (-nan /sec)
          order  7    : 0              (-nan /sec)
          order  8    : 0              (-nan /sec)
          order  9    : 0              (-nan /sec)
          order 10    : 0              (-nan /sec)
          order 11    : 0              (-nan /sec)
          order 12    : 0              (-nan /sec)
          order 13    : 455            (17165 /sec)
          order 14    : 386            (12228 /sec)
          order 15    : 3675           (1703 /sec)
          order 16    : 46643          (210 /sec)
          order 17    : 1447           (69 /sec)
          order 18    : 14             (248 /sec)
          order 19    : 6              (220 /sec)
          order 20    : 5              (188 /sec)
          order 21    : 0              (-nan /sec)
Canonicity checking   : 985.255 s
Noncanonicity checking: 261.516 s
Total canonicity time : 1246.77 s
database reductions   : 67
restarts              : 2830
conflicts             : 1465208        (788 /sec)
decisions             : 1811725        (0.00 % random) (974 /sec)
propagations          : 170702784      (91753 /sec)
conflict literals     : 153889000      (58.14 % deleted)
actual reward         : 0.119200
Memory used           : 455.00 MB
CPU time              : 1860.45 s

UNSATISFIABLE
